Route #1: 1 19 8 35 15 28 25 36 21 39 32 4 1
Route #2: 1 31 24 18 40 11 37 2 45 1
Route #3: 1 20 34 27 26 12 30 17 5 9 23 1
Route #4: 1 29 3 16 33 38 10 1
Route #5: 1 6 7 13 22 44 42 41 43 14 1
cost: 823
